
Gurobi 8.0.1 (mac64, Python) logging started Thu Nov  5 20:20:03 2020


Gurobi 8.0.1 (mac64, Python) logging started Thu Nov  5 20:20:10 2020


Gurobi 8.0.1 (mac64, Python) logging started Thu Nov  5 20:20:25 2020


Gurobi 8.0.1 (mac64, Python) logging started Thu Nov  5 20:21:30 2020

Optimize a model with 57 rows, 44 columns and 88 nonzeros
Variable types: 0 continuous, 44 integer (44 binary)
Coefficient statistics:
  Matrix range     [1e+00, 1e+00]
  Objective range  [0e+00, 0e+00]
  Bounds range     [1e+00, 1e+00]
  RHS range        [1e+00, 1e+00]
Found heuristic solution: objective 1.0000000

Explored 0 nodes (0 simplex iterations) in 0.00 seconds
Thread count was 1 (of 4 available processors)

Solution count 1: 1 

Optimal solution found (tolerance 1.00e-04)
Best objective 1.000000000000e+00, best bound 1.000000000000e+00, gap 0.0000%

Gurobi 8.0.1 (mac64, Python) logging started Thu Nov  5 20:21:38 2020

Optimize a model with 57 rows, 44 columns and 88 nonzeros
Variable types: 0 continuous, 44 integer (44 binary)
Coefficient statistics:
  Matrix range     [1e+00, 1e+00]
  Objective range  [0e+00, 0e+00]
  Bounds range     [1e+00, 1e+00]
  RHS range        [1e+00, 1e+00]
Found heuristic solution: objective 1.0000000

Explored 0 nodes (0 simplex iterations) in 0.00 seconds
Thread count was 1 (of 4 available processors)

Solution count 1: 1 

Optimal solution found (tolerance 1.00e-04)
Best objective 1.000000000000e+00, best bound 1.000000000000e+00, gap 0.0000%

Gurobi 8.0.1 (mac64, Python) logging started Thu Nov  5 21:06:30 2020

Optimize a model with 57 rows, 59 columns and 88 nonzeros
Variable types: 0 continuous, 59 integer (59 binary)
Coefficient statistics:
  Matrix range     [1e+00, 1e+00]
  Objective range  [0e+00, 0e+00]
  Bounds range     [1e+00, 1e+00]
  RHS range        [1e+00, 1e+00]
Found heuristic solution: objective 1.0000000

Explored 0 nodes (0 simplex iterations) in 0.00 seconds
Thread count was 1 (of 4 available processors)

Solution count 1: 1 

Optimal solution found (tolerance 1.00e-04)
Best objective 1.000000000000e+00, best bound 1.000000000000e+00, gap 0.0000%

Gurobi 8.0.1 (mac64, Python) logging started Thu Nov  5 21:11:37 2020

Optimize a model with 3192 rows, 335694 columns and 37828 nonzeros
Variable types: 0 continuous, 335694 integer (335694 binary)
Coefficient statistics:
  Matrix range     [1e+00, 1e+00]
  Objective range  [0e+00, 0e+00]
  Bounds range     [1e+00, 1e+00]
  RHS range        [1e+00, 1e+00]

Gurobi 8.0.1 (mac64, Python) logging started Thu Nov  5 21:59:28 2020

Optimize a model with 3192 rows, 362654 columns and 37828 nonzeros
Variable types: 0 continuous, 362654 integer (362654 binary)
Coefficient statistics:
  Matrix range     [1e+00, 1e+00]
  Objective range  [0e+00, 0e+00]
  Bounds range     [1e+00, 1e+00]
  RHS range        [1e+00, 1e+00]

Gurobi 8.0.1 (mac64, Python) logging started Thu Nov  5 21:59:51 2020


Gurobi 8.0.1 (mac64, Python) logging started Thu Nov  5 22:00:05 2020

Optimize a model with 57 rows, 59 columns and 88 nonzeros
Variable types: 0 continuous, 59 integer (59 binary)
Coefficient statistics:
  Matrix range     [1e+00, 1e+00]
  Objective range  [0e+00, 0e+00]
  Bounds range     [1e+00, 1e+00]
  RHS range        [1e+00, 1e+00]
Found heuristic solution: objective 1.0000000

Explored 0 nodes (0 simplex iterations) in 0.00 seconds
Thread count was 1 (of 4 available processors)

Solution count 1: 1 

Optimal solution found (tolerance 1.00e-04)
Best objective 1.000000000000e+00, best bound 1.000000000000e+00, gap 0.0000%

Gurobi 8.0.1 (mac64, Python) logging started Thu Nov  5 22:00:40 2020


Gurobi 8.0.1 (mac64, Python) logging started Thu Nov  5 22:09:58 2020

Optimize a model with 158 rows, 152 columns and 226 nonzeros
Variable types: 0 continuous, 152 integer (152 binary)
Coefficient statistics:
  Matrix range     [1e+00, 1e+00]
  Objective range  [0e+00, 0e+00]
  Bounds range     [1e+00, 1e+00]
  RHS range        [1e+00, 1e+00]
Found heuristic solution: objective 1.0000000

Explored 0 nodes (0 simplex iterations) in 0.00 seconds
Thread count was 1 (of 4 available processors)

Solution count 1: 1 

Optimal solution found (tolerance 1.00e-04)
Best objective 1.000000000000e+00, best bound 1.000000000000e+00, gap 0.0000%
